100
128
27
53
24
12
23
51
12
28
25
17
5
11
3
3
8
52
22
9
56
15
37
17
39
38
15
11
1
1
4
14
10
5
3
30
41
20
63
36
29
14
15
9
11
35
4
6
23
18
10
16
40
23
48
6
63
38
3
10
45
8
45
9
12
10
8
15
7
6
13
9
33
56
43
51
37
20
59
42
38
55
24
38
35
56
27
24
36
36
58
7
19
5
27
61
24
30
37
27
60
41